50
    1    71    37
    2    76    53
    3    77    75
    4     5    72
    5    91    65
    6    82    19
    7    71    54
    8    33    57
    9    60    26
   10    32    67
   11    48    57
   12    36    68
   13    80    53
   14    59    17
   15    68    94
   16    49    14
   17    79    58
   18    47    93
   19    96    38
   20    51    15
   21    43    70
   22    32    45
   23    89     5
   24    73    32
   25    90    38
   26    80    21
   27    61    35
   28    37    65
   29    23    83
   30    62    16
   31    70     3
   32    45    29
   33    17    77
   34   100    98
   35     1     1
   36    42    10
   37    86    29
   38    48    14
   39     8    21
   40    41    56
   41    73    76
   42    15    95
   43    43    31
   44    44    43
   45     4    60
   46    48    56
   47    86    79
   48    30    55
   49    66    88
   50    67    33
1597
